c This is a CNF SAT formula in the DIMACS CNF format,
c produced with the bc2cnf translator by Tommi Junttila;
c see http://users.ics.aalto.fi/tjunttil/circuits/index.html
c phi_Gamma <-> 1
c phi_T_feature_det <-> 1
c phi_T_transitions <-> 1
c phi_T_transitions_consistency <-> 1
c phi_T <-> 1
c phi_sim_leaves <-> 1
c phi_sim_transition <-> 1
c phi_sim <-> 1
c FORMULA <-> 1
c pi_1_18 <-> 2
c pi_0_18 <-> 15
c pi_1_10 <-> 34
c pi_1_17 <-> 34
c pi_0_10 <-> 45
c pi_0_17 <-> 45
c pi_1_11 <-> 60
c pi_1_16 <-> 60
c pi_0_11 <-> 62
c pi_0_16 <-> 62
c pi_1_15 <-> 75
c pi_0_15 <-> 79
c pi_1_14 <-> 96
c pi_0_14 <-> 100
c pi_1_12 <-> 117
c pi_1_13 <-> 117
c pi_0_12 <-> 120
c pi_0_13 <-> 120
c pi_1_9 <-> 130
c pi_0_9 <-> 136
c pi_1_8 <-> 146
c pi_0_8 <-> 151
c pi_1_7 <-> 164
c pi_0_7 <-> 170
c pi_1_6 <-> 187
c pi_0_6 <-> 191
c pi_1_5 <-> 204
c pi_0_5 <-> 207
c pi_1_4 <-> 223
c pi_0_4 <-> 225
c pi_1_3 <-> 238
c pi_0_3 <-> 240
c pi_1_2 <-> 259
c pi_0_2 <-> 260
c pi_1_1 <-> 273
c pi_0_1 <-> 277
c pi_1_0 <-> 293
c pi_0_0 <-> 296
c alp_approved_1_0 <-> 312
c alp_approved_0_1 <-> 312
c alp_approved_0_2 <-> 312
c alp_approved_0_3 <-> 312
c alp_approved_0_4 <-> 312
c alp_approved_0_5 <-> 312
c alp_approved_1_6 <-> 312
c alp_approved_1_7 <-> 312
c alp_approved_1_8 <-> 312
c alp_approved_0_9 <-> 312
c alp_approved_1_10 <-> 312
c alp_approved_0_11 <-> 312
c alp_approved_1_12 <-> 312
c alp_approved_1_13 <-> 312
c alp_approved_0_14 <-> 312
c alp_approved_1_15 <-> 312
c alp_approved_0_16 <-> 312
c alp_approved_1_17 <-> 312
c alp_approved_0_18 <-> 312
c alp_approved_1_1 <-> 313
c alp_approved_1_2 <-> 313
c alp_approved_1_3 <-> 313
c alp_approved_1_4 <-> 313
c alp_approved_1_5 <-> 313
c alp_approved_1_9 <-> 313
c alp_approved_1_11 <-> 313
c alp_approved_1_14 <-> 313
c alp_approved_1_16 <-> 313
c alp_approved_1_18 <-> 313
c approved_P100 <-> 313
c alp_approved_0_0 <-> 314
c alp_approved_0_6 <-> 314
c alp_approved_0_7 <-> 314
c alp_approved_0_8 <-> 314
c alp_approved_0_10 <-> 314
c alp_approved_0_12 <-> 314
c alp_approved_0_13 <-> 314
c alp_approved_0_15 <-> 314
c alp_approved_0_17 <-> 314
c approved_P0 <-> 314
c tau_1_3_approved_1 <-> 351
c tau_1_3_approved_0 <-> 352
c tau_1_2_approved_1 <-> 353
c tau_1_2_approved_0 <-> 354
c tau_1_1_approved_1 <-> 355
c tau_1_1_approved_0 <-> 356
c tau_1_0_approved_1 <-> 357
c tau_1_0_approved_0 <-> 358
c tau_0_3_approved_1 <-> 396
c tau_0_3_approved_0 <-> 397
c tau_0_3_1 <-> 398
c tau_0_2_approved_1 <-> 399
c tau_0_2_approved_0 <-> 400
c tau_0_2_1 <-> 401
c tau_0_1_approved_1 <-> 402
c tau_0_1_approved_0 <-> 403
c tau_0_1_1 <-> 404
c tau_0_0_approved_1 <-> 405
c tau_0_0_approved_0 <-> 406
c tau_0_0_1 <-> 407
c lam_1_credit_score <-> 421
c lam_1_dependents <-> 423
c lam_1_monthly_income <-> 425
c lam_1_age <-> 426
c lam_0_credit_score <-> 440
c lam_0_dependents <-> 442
c lam_0_monthly_income <-> 444
c lam_0_age <-> 445
p wcnf 445 1292 20  
20 1 0
20 2 -3 0
20 2 -6 0
20 -2 6 3 0
20 -3 4 0
20 -3 421 0
20 3 -421 -4 0
20 -4 5 0
20 -4 -354 0
20 4 354 -5 0
20 5 353 0
20 5 -313 0
20 -5 313 -353 0
20 6 -7 0
20 6 -8 0
20 -6 8 7 0
20 -7 10 0
20 -7 423 0
20 7 -423 -10 0
20 8 -9 0
20 8 -12 0
20 -8 12 9 0
20 -9 10 0
20 -9 425 0
20 9 -425 -10 0
20 -10 11 0
20 -10 -358 0
20 10 358 -11 0
20 11 357 0
20 11 -313 0
20 -11 313 -357 0
20 -12 13 0
20 -12 426 0
20 12 -426 -13 0
20 -13 14 0
20 -13 -352 0
20 13 352 -14 0
20 14 351 0
20 14 -313 0
20 -14 313 -351 0
20 15 -16 0
20 15 -21 0
20 -15 21 16 0
1 15 0
20 -16 17 0
20 -16 440 0
20 16 -440 -17 0
20 -17 18 0
20 -17 19 0
20 17 -19 -18 0
20 18 399 0
20 18 -313 0
20 -18 313 -399 0
20 -19 -400 0
20 -19 20 0
20 19 -20 400 0
20 20 -2 0
20 20 401 0
20 -20 -401 2 0
20 21 -22 0
20 21 -23 0
20 -21 23 22 0
20 -22 25 0
20 -22 442 0
20 22 -442 -25 0
20 23 -24 0
20 23 -29 0
20 -23 29 24 0
20 -24 25 0
20 -24 444 0
20 24 -444 -25 0
20 -25 26 0
20 -25 27 0
20 25 -27 -26 0
20 26 405 0
20 26 -313 0
20 -26 313 -405 0
20 -27 -406 0
20 -27 28 0
20 27 -28 406 0
20 28 -2 0
20 28 407 0
20 -28 -407 2 0
20 -29 30 0
20 -29 445 0
20 29 -445 -30 0
20 -30 31 0
20 -30 32 0
20 30 -32 -31 0
20 31 396 0
20 31 -313 0
20 -31 313 -396 0
20 -32 -397 0
20 -32 33 0
20 32 -33 397 0
20 33 -2 0
20 33 398 0
20 -33 -398 2 0
20 34 -35 0
20 34 -36 0
20 -34 36 35 0
20 -35 43 0
20 -35 421 0
20 35 -421 -43 0
20 36 -37 0
20 36 -40 0
20 -36 40 37 0
20 -37 38 0
20 -37 423 0
20 37 -423 -38 0
20 -38 -357 0
20 -38 39 0
20 38 -39 357 0
20 39 358 0
20 39 -314 0
20 -39 314 -358 0
20 40 -41 0
20 40 -42 0
20 -40 42 41 0
20 -41 43 0
20 -41 425 0
20 41 -425 -43 0
20 -42 43 0
20 -42 426 0
20 42 -426 -43 0
20 -43 -355 0
20 -43 44 0
20 43 -44 355 0
20 44 356 0
20 44 -314 0
20 -44 314 -356 0
20 45 -46 0
20 45 -47 0
20 -45 47 46 0
1 45 0
20 -46 56 0
20 -46 440 0
20 46 -440 -56 0
20 47 -48 0
20 47 -53 0
20 -47 53 48 0
20 -48 49 0
20 -48 442 0
20 48 -442 -49 0
20 -49 -405 0
20 -49 50 0
20 49 -50 405 0
20 -50 51 0
20 -50 52 0
20 50 -52 -51 0
20 51 406 0
20 51 -314 0
20 -51 314 -406 0
20 52 407 0
20 52 -34 0
20 -52 34 -407 0
20 53 -54 0
20 53 -55 0
20 -53 55 54 0
20 -54 56 0
20 -54 444 0
20 54 -444 -56 0
20 -55 56 0
20 -55 445 0
20 55 -445 -56 0
20 -56 -402 0
20 -56 57 0
20 56 -57 402 0
20 -57 58 0
20 -57 59 0
20 57 -59 -58 0
20 58 403 0
20 58 -314 0
20 -58 314 -403 0
20 59 -34 0
20 59 404 0
20 -59 -404 34 0
20 60 -6 0
20 60 -61 0
20 -60 61 6 0
20 -61 10 0
20 -61 421 0
20 61 -421 -10 0
20 62 -63 0
20 62 -64 0
20 -62 64 63 0
1 62 0
20 -63 68 0
20 -63 440 0
20 63 -440 -68 0
20 64 -65 0
20 64 -66 0
20 -64 66 65 0
20 -65 68 0
20 -65 442 0
20 65 -442 -68 0
20 66 -67 0
20 66 -71 0
20 -66 71 67 0
20 -67 68 0
20 -67 444 0
20 67 -444 -68 0
20 -68 26 0
20 -68 69 0
20 68 -69 -26 0
20 -69 -406 0
20 -69 70 0
20 69 -70 406 0
20 70 407 0
20 70 -60 0
20 -70 60 -407 0
20 -71 72 0
20 -71 445 0
20 71 -445 -72 0
20 -72 31 0
20 -72 73 0
20 72 -73 -31 0
20 -73 -397 0
20 -73 74 0
20 73 -74 397 0
20 74 398 0
20 74 -60 0
20 -74 60 -398 0
20 75 -36 0
20 75 -76 0
20 -75 76 36 0
20 -76 77 0
20 -76 421 0
20 76 -421 -77 0
20 -77 -353 0
20 -77 78 0
20 77 -78 353 0
20 78 354 0
20 78 -314 0
20 -78 314 -354 0
20 79 -80 0
20 79 -85 0
20 -79 85 80 0
1 79 0
20 -80 81 0
20 -80 440 0
20 80 -440 -81 0
20 -81 -399 0
20 -81 82 0
20 81 -82 399 0
20 -82 83 0
20 -82 84 0
20 82 -84 -83 0
20 83 400 0
20 83 -314 0
20 -83 314 -400 0
20 84 401 0
20 84 -75 0
20 -84 75 -401 0
20 85 -86 0
20 85 -90 0
20 -85 90 86 0
20 -86 87 0
20 -86 442 0
20 86 -442 -87 0
20 -87 -405 0
20 -87 88 0
20 87 -88 405 0
20 -88 51 0
20 -88 89 0
20 88 -89 -51 0
20 89 407 0
20 89 -75 0
20 -89 75 -407 0
20 90 -91 0
20 90 -92 0
20 -90 92 91 0
20 -91 93 0
20 -91 444 0
20 91 -444 -93 0
20 -92 93 0
20 -92 445 0
20 92 -445 -93 0
20 -93 -402 0
20 -93 94 0
20 93 -94 402 0
20 -94 58 0
20 -94 95 0
20 94 -95 -58 0
20 95 404 0
20 95 -75 0
20 -95 75 -404 0
20 96 -6 0
20 96 -97 0
20 -96 97 6 0
20 -97 98 0
20 -97 421 0
20 97 -421 -98 0
20 -98 -356 0
20 -98 99 0
20 98 -99 356 0
20 99 355 0
20 99 -313 0
20 -99 313 -355 0
20 100 -101 0
20 100 -106 0
20 -100 106 101 0
1 100 0
20 -101 102 0
20 -101 440 0
20 101 -440 -102 0
20 -102 103 0
20 -102 104 0
20 102 -104 -103 0
20 103 402 0
20 103 -313 0
20 -103 313 -402 0
20 -104 -403 0
20 -104 105 0
20 104 -105 403 0
20 105 404 0
20 105 -96 0
20 -105 96 -404 0
20 106 -107 0
20 106 -108 0
20 -106 108 107 0
20 -107 110 0
20 -107 442 0
20 107 -442 -110 0
20 108 -109 0
20 108 -113 0
20 -108 113 109 0
20 -109 110 0
20 -109 444 0
20 109 -444 -110 0
20 -110 26 0
20 -110 111 0
20 110 -111 -26 0
20 -111 -406 0
20 -111 112 0
20 111 -112 406 0
20 112 407 0
20 112 -96 0
20 -112 96 -407 0
20 -113 114 0
20 -113 445 0
20 113 -445 -114 0
20 -114 31 0
20 -114 115 0
20 114 -115 -31 0
20 -115 -397 0
20 -115 116 0
20 115 -116 397 0
20 116 398 0
20 116 -96 0
20 -116 96 -398 0
20 117 -35 0
20 117 -118 0
20 -117 118 35 0
20 118 -40 0
20 118 -119 0
20 -118 119 40 0
20 -119 43 0
20 -119 423 0
20 119 -423 -43 0
20 120 -121 0
20 120 -122 0
20 -120 122 121 0
1 120 0
20 -121 127 0
20 -121 440 0
20 121 -440 -127 0
20 122 -123 0
20 122 -124 0
20 -122 124 123 0
20 -123 127 0
20 -123 442 0
20 123 -442 -127 0
20 124 -125 0
20 124 -126 0
20 -124 126 125 0
20 -125 127 0
20 -125 444 0
20 125 -444 -127 0
20 -126 127 0
20 -126 445 0
20 126 -445 -127 0
20 -127 -402 0
20 -127 128 0
20 127 -128 402 0
20 -128 58 0
20 -128 129 0
20 128 -129 -58 0
20 129 404 0
20 129 -117 0
20 -129 117 -404 0
20 130 -97 0
20 130 -131 0
20 -130 131 97 0
20 131 -132 0
20 131 -133 0
20 -131 133 132 0
20 -132 98 0
20 -132 423 0
20 132 -423 -98 0
20 133 -134 0
20 133 -135 0
20 -133 135 134 0
20 -134 98 0
20 -134 425 0
20 134 -425 -98 0
20 -135 98 0
20 -135 426 0
20 135 -426 -98 0
20 136 -137 0
20 136 -138 0
20 -136 138 137 0
1 136 0
20 -137 143 0
20 -137 440 0
20 137 -440 -143 0
20 138 -139 0
20 138 -140 0
20 -138 140 139 0
20 -139 143 0
20 -139 442 0
20 139 -442 -143 0
20 140 -141 0
20 140 -142 0
20 -140 142 141 0
20 -141 143 0
20 -141 444 0
20 141 -444 -143 0
20 -142 143 0
20 -142 445 0
20 142 -445 -143 0
20 -143 103 0
20 -143 144 0
20 143 -144 -103 0
20 -144 -403 0
20 -144 145 0
20 144 -145 403 0
20 145 404 0
20 145 -130 0
20 -145 130 -404 0
20 146 -76 0
20 146 -147 0
20 -146 147 76 0
20 147 -37 0
20 147 -148 0
20 -147 148 37 0
20 148 -149 0
20 148 -150 0
20 -148 150 149 0
20 -149 38 0
20 -149 425 0
20 149 -425 -38 0
20 -150 38 0
20 -150 426 0
20 150 -426 -38 0
20 151 -152 0
20 151 -156 0
20 -151 156 152 0
1 151 0
20 -152 153 0
20 -152 440 0
20 152 -440 -153 0
20 -153 -399 0
20 -153 154 0
20 153 -154 399 0
20 -154 83 0
20 -154 155 0
20 154 -155 -83 0
20 155 401 0
20 155 -146 0
20 -155 146 -401 0
20 156 -157 0
20 156 -158 0
20 -156 158 157 0
20 -157 161 0
20 -157 442 0
20 157 -442 -161 0
20 158 -159 0
20 158 -160 0
20 -158 160 159 0
20 -159 161 0
20 -159 444 0
20 159 -444 -161 0
20 -160 161 0
20 -160 445 0
20 160 -445 -161 0
20 -161 -405 0
20 -161 162 0
20 161 -162 405 0
20 -162 51 0
20 -162 163 0
20 162 -163 -51 0
20 163 407 0
20 163 -146 0
20 -163 146 -407 0
20 164 -76 0
20 164 -165 0
20 -164 165 76 0
20 165 -37 0
20 165 -166 0
20 -165 166 37 0
20 166 -149 0
20 166 -167 0
20 -166 167 149 0
20 -167 168 0
20 -167 426 0
20 167 -426 -168 0
20 -168 -351 0
20 -168 169 0
20 168 -169 351 0
20 169 352 0
20 169 -314 0
20 -169 314 -352 0
20 170 -171 0
20 170 -175 0
20 -170 175 171 0
1 170 0
20 -171 172 0
20 -171 440 0
20 171 -440 -172 0
20 -172 -399 0
20 -172 173 0
20 172 -173 399 0
20 -173 83 0
20 -173 174 0
20 173 -174 -83 0
20 174 401 0
20 174 -164 0
20 -174 164 -401 0
20 175 -176 0
20 175 -177 0
20 -175 177 176 0
20 -176 179 0
20 -176 442 0
20 176 -442 -179 0
20 177 -178 0
20 177 -182 0
20 -177 182 178 0
20 -178 179 0
20 -178 444 0
20 178 -444 -179 0
20 -179 -405 0
20 -179 180 0
20 179 -180 405 0
20 -180 51 0
20 -180 181 0
20 180 -181 -51 0
20 181 407 0
20 181 -164 0
20 -181 164 -407 0
20 -182 183 0
20 -182 445 0
20 182 -445 -183 0
20 -183 -396 0
20 -183 184 0
20 183 -184 396 0
20 -184 185 0
20 -184 186 0
20 184 -186 -185 0
20 185 397 0
20 185 -314 0
20 -185 314 -397 0
20 186 398 0
20 186 -164 0
20 -186 164 -398 0
20 187 -188 0
20 187 -189 0
20 -187 189 188 0
20 -188 38 0
20 -188 421 0
20 188 -421 -38 0
20 189 -119 0
20 189 -190 0
20 -189 190 119 0
20 190 -41 0
20 190 -150 0
20 -190 150 41 0
20 191 -192 0
20 191 -193 0
20 -191 193 192 0
1 191 0
20 -192 201 0
20 -192 440 0
20 192 -440 -201 0
20 193 -194 0
20 193 -195 0
20 -193 195 194 0
20 -194 197 0
20 -194 442 0
20 194 -442 -197 0
20 195 -196 0
20 195 -200 0
20 -195 200 196 0
20 -196 197 0
20 -196 444 0
20 196 -444 -197 0
20 -197 -402 0
20 -197 198 0
20 197 -198 402 0
20 -198 58 0
20 -198 199 0
20 198 -199 -58 0
20 199 404 0
20 199 -187 0
20 -199 187 -404 0
20 -200 201 0
20 -200 445 0
20 200 -445 -201 0
20 -201 -405 0
20 -201 202 0
20 201 -202 405 0
20 -202 51 0
20 -202 203 0
20 202 -203 -51 0
20 203 407 0
20 203 -187 0
20 -203 187 -407 0
20 204 -3 0
20 204 -205 0
20 -204 205 3 0
20 205 -132 0
20 205 -206 0
20 -205 206 132 0
20 206 -12 0
20 206 -134 0
20 -206 134 12 0
20 207 -208 0
20 207 -212 0
20 -207 212 208 0
1 207 0
20 -208 209 0
20 -208 440 0
20 208 -440 -209 0
20 -209 18 0
20 -209 210 0
20 209 -210 -18 0
20 -210 -400 0
20 -210 211 0
20 210 -211 400 0
20 211 401 0
20 211 -204 0
20 -211 204 -401 0
20 212 -213 0
20 212 -214 0
20 -212 214 213 0
20 -213 216 0
20 -213 442 0
20 213 -442 -216 0
20 214 -215 0
20 214 -219 0
20 -214 219 215 0
20 -215 216 0
20 -215 444 0
20 215 -444 -216 0
20 -216 103 0
20 -216 217 0
20 216 -217 -103 0
20 -217 -403 0
20 -217 218 0
20 217 -218 403 0
20 218 404 0
20 218 -204 0
20 -218 204 -404 0
20 -219 220 0
20 -219 445 0
20 219 -445 -220 0
20 -220 31 0
20 -220 221 0
20 220 -221 -31 0
20 -221 -397 0
20 -221 222 0
20 221 -222 397 0
20 222 398 0
20 222 -204 0
20 -222 204 -398 0
20 223 -61 0
20 223 -224 0
20 -223 224 61 0
20 224 -7 0
20 224 -133 0
20 -224 133 7 0
20 225 -226 0
20 225 -227 0
20 -225 227 226 0
1 225 0
20 -226 229 0
20 -226 440 0
20 226 -440 -229 0
20 227 -228 0
20 227 -232 0
20 -227 232 228 0
20 -228 229 0
20 -228 442 0
20 228 -442 -229 0
20 -229 26 0
20 -229 230 0
20 229 -230 -26 0
20 -230 -406 0
20 -230 231 0
20 230 -231 406 0
20 231 407 0
20 231 -223 0
20 -231 223 -407 0
20 232 -233 0
20 232 -234 0
20 -232 234 233 0
20 -233 235 0
20 -233 444 0
20 233 -444 -235 0
20 -234 235 0
20 -234 445 0
20 234 -445 -235 0
20 -235 103 0
20 -235 236 0
20 235 -236 -103 0
20 -236 -403 0
20 -236 237 0
20 236 -237 403 0
20 237 404 0
20 237 -223 0
20 -237 223 -404 0
20 238 -3 0
20 238 -239 0
20 -238 239 3 0
20 239 -7 0
20 239 -206 0
20 -239 206 7 0
20 240 -241 0
20 240 -245 0
20 -240 245 241 0
1 240 0
20 -241 242 0
20 -241 440 0
20 241 -440 -242 0
20 -242 18 0
20 -242 243 0
20 242 -243 -18 0
20 -243 -400 0
20 -243 244 0
20 243 -244 400 0
20 244 401 0
20 244 -238 0
20 -244 238 -401 0
20 245 -246 0
20 245 -250 0
20 -245 250 246 0
20 -246 247 0
20 -246 442 0
20 246 -442 -247 0
20 -247 26 0
20 -247 248 0
20 247 -248 -26 0
20 -248 -406 0
20 -248 249 0
20 248 -249 406 0
20 249 407 0
20 249 -238 0
20 -249 238 -407 0
20 250 -251 0
20 250 -255 0
20 -250 255 251 0
20 -251 252 0
20 -251 444 0
20 251 -444 -252 0
20 -252 103 0
20 -252 253 0
20 252 -253 -103 0
20 -253 -403 0
20 -253 254 0
20 253 -254 403 0
20 254 404 0
20 254 -238 0
20 -254 238 -404 0
20 -255 256 0
20 -255 445 0
20 255 -445 -256 0
20 -256 31 0
20 -256 257 0
20 256 -257 -31 0
20 -257 -397 0
20 -257 258 0
20 257 -258 397 0
20 258 398 0
20 258 -238 0
20 -258 238 -398 0
20 259 -61 0
20 259 -131 0
20 -259 131 61 0
20 260 -261 0
20 260 -265 0
20 -260 265 261 0
1 260 0
20 -261 262 0
20 -261 440 0
20 261 -440 -262 0
20 -262 26 0
20 -262 263 0
20 262 -263 -26 0
20 -263 -406 0
20 -263 264 0
20 263 -264 406 0
20 264 407 0
20 264 -259 0
20 -264 259 -407 0
20 265 -266 0
20 265 -267 0
20 -265 267 266 0
20 -266 270 0
20 -266 442 0
20 266 -442 -270 0
20 267 -268 0
20 267 -269 0
20 -267 269 268 0
20 -268 270 0
20 -268 444 0
20 268 -444 -270 0
20 -269 270 0
20 -269 445 0
20 269 -445 -270 0
20 -270 103 0
20 -270 271 0
20 270 -271 -103 0
20 -271 -403 0
20 -271 272 0
20 271 -272 403 0
20 272 404 0
20 272 -259 0
20 -272 259 -404 0
20 273 -3 0
20 273 -274 0
20 -273 274 3 0
20 274 -7 0
20 274 -275 0
20 -274 275 7 0
20 275 -134 0
20 275 -276 0
20 -275 276 134 0
20 -276 4 0
20 -276 426 0
20 276 -426 -4 0
20 277 -278 0
20 277 -279 0
20 -277 279 278 0
1 277 0
20 -278 290 0
20 -278 440 0
20 278 -440 -290 0
20 279 -280 0
20 279 -284 0
20 -279 284 280 0
20 -280 281 0
20 -280 442 0
20 280 -442 -281 0
20 -281 26 0
20 -281 282 0
20 281 -282 -26 0
20 -282 -406 0
20 -282 283 0
20 282 -283 406 0
20 283 407 0
20 283 -273 0
20 -283 273 -407 0
20 284 -285 0
20 284 -289 0
20 -284 289 285 0
20 -285 286 0
20 -285 444 0
20 285 -444 -286 0
20 -286 103 0
20 -286 287 0
20 286 -287 -103 0
20 -287 -403 0
20 -287 288 0
20 287 -288 403 0
20 288 404 0
20 288 -273 0
20 -288 273 -404 0
20 -289 290 0
20 -289 445 0
20 289 -445 -290 0
20 -290 18 0
20 -290 291 0
20 290 -291 -18 0
20 -291 -400 0
20 -291 292 0
20 291 -292 400 0
20 292 401 0
20 292 -273 0
20 -292 273 -401 0
20 293 -76 0
20 293 -294 0
20 -293 294 76 0
20 294 -119 0
20 294 -295 0
20 -294 295 119 0
20 295 -42 0
20 295 -149 0
20 -295 149 42 0
20 296 -297 0
20 296 -301 0
20 -296 301 297 0
1 296 0
20 -297 298 0
20 -297 440 0
20 297 -440 -298 0
20 -298 -399 0
20 -298 299 0
20 298 -299 399 0
20 -299 83 0
20 -299 300 0
20 299 -300 -83 0
20 300 401 0
20 300 -293 0
20 -300 293 -401 0
20 301 -302 0
20 301 -303 0
20 -301 303 302 0
20 -302 309 0
20 -302 442 0
20 302 -442 -309 0
20 303 -304 0
20 303 -308 0
20 -303 308 304 0
20 -304 305 0
20 -304 444 0
20 304 -444 -305 0
20 -305 -405 0
20 -305 306 0
20 305 -306 405 0
20 -306 51 0
20 -306 307 0
20 306 -307 -51 0
20 307 407 0
20 307 -293 0
20 -307 293 -407 0
20 -308 309 0
20 -308 445 0
20 308 -445 -309 0
20 -309 -402 0
20 -309 310 0
20 309 -310 402 0
20 -310 58 0
20 -310 311 0
20 310 -311 -58 0
20 311 404 0
20 311 -293 0
20 -311 293 -404 0
20 -312 0
20 315 421 0
20 315 -316 0
20 -315 316 -421 0
20 315 0
20 -316 -351 0
20 -316 -352 0
20 316 352 351 0
20 317 423 0
20 317 -318 0
20 -317 318 -423 0
20 317 0
20 -318 -351 0
20 -318 319 0
20 318 -319 351 0
20 -319 -352 0
20 -319 320 0
20 319 -320 352 0
20 -320 -353 0
20 -320 -354 0
20 320 354 353 0
20 321 -318 0
20 321 425 0
20 -321 -425 318 0
20 321 0
20 322 440 0
20 322 -323 0
20 -322 323 -440 0
20 322 0
20 -323 -396 0
20 -323 324 0
20 323 -324 396 0
20 -324 -397 0
20 -324 -398 0
20 324 398 397 0
20 325 442 0
20 325 -326 0
20 -325 326 -442 0
20 325 0
20 -326 -396 0
20 -326 327 0
20 326 -327 396 0
20 -327 -397 0
20 -327 328 0
20 327 -328 397 0
20 -328 -398 0
20 -328 329 0
20 328 -329 398 0
20 -329 -399 0
20 -329 330 0
20 329 -330 399 0
20 -330 -400 0
20 -330 -401 0
20 330 401 400 0
20 331 -326 0
20 331 444 0
20 -331 -444 326 0
20 331 0
20 332 421 0
20 332 -333 0
20 -332 333 -421 0
20 332 0
20 -333 334 0
20 -333 337 0
20 333 -337 -334 0
20 334 -335 0
20 334 -336 0
20 -334 336 335 0
20 -335 -354 0
20 -335 353 0
20 335 -353 354 0
20 -336 -353 0
20 -336 354 0
20 336 -354 353 0
20 -337 338 0
20 -337 341 0
20 337 -341 -338 0
20 338 -339 0
20 338 -340 0
20 -338 340 339 0
20 -339 -356 0
20 -339 355 0
20 339 -355 356 0
20 -340 -355 0
20 -340 356 0
20 340 -356 355 0
20 341 -342 0
20 341 -343 0
20 -341 343 342 0
20 -342 -358 0
20 -342 357 0
20 342 -357 358 0
20 -343 -357 0
20 -343 358 0
20 343 -358 357 0
20 344 423 0
20 344 -337 0
20 -344 337 -423 0
20 344 0
20 345 425 0
20 345 -337 0
20 -345 337 -425 0
20 345 0
20 346 426 0
20 346 -347 0
20 -346 347 -426 0
20 346 0
20 -347 333 0
20 -347 348 0
20 347 -348 -333 0
20 348 -349 0
20 348 -350 0
20 -348 350 349 0
20 -349 -352 0
20 -349 351 0
20 349 -351 352 0
20 -350 -351 0
20 -350 352 0
20 350 -352 351 0
20 359 440 0
20 359 -360 0
20 -359 360 -440 0
20 359 0
20 -360 361 0
20 -360 368 0
20 360 -368 -361 0
20 361 -362 0
20 361 -366 0
20 -361 366 362 0
20 362 -363 0
20 362 -364 0
20 -362 364 363 0
20 -363 330 0
20 -363 399 0
20 363 -399 -330 0
20 -364 365 0
20 -364 400 0
20 364 -400 -365 0
20 -365 -399 0
20 -365 -401 0
20 365 401 399 0
20 -366 367 0
20 -366 401 0
20 366 -401 -367 0
20 -367 -399 0
20 -367 -400 0
20 367 400 399 0
20 -368 369 0
20 -368 377 0
20 368 -377 -369 0
20 369 -370 0
20 369 -375 0
20 -369 375 370 0
20 370 -371 0
20 370 -373 0
20 -370 373 371 0
20 -371 372 0
20 -371 402 0
20 371 -402 -372 0
20 -372 -403 0
20 -372 -404 0
20 372 404 403 0
20 -373 374 0
20 -373 403 0
20 373 -403 -374 0
20 -374 -402 0
20 -374 -404 0
20 374 404 402 0
20 -375 376 0
20 -375 404 0
20 375 -404 -376 0
20 -376 -402 0
20 -376 -403 0
20 376 403 402 0
20 377 -378 0
20 377 -383 0
20 -377 383 378 0
20 378 -379 0
20 378 -381 0
20 -378 381 379 0
20 -379 380 0
20 -379 405 0
20 379 -405 -380 0
20 -380 -406 0
20 -380 -407 0
20 380 407 406 0
20 -381 382 0
20 -381 406 0
20 381 -406 -382 0
20 -382 -405 0
20 -382 -407 0
20 382 407 405 0
20 -383 384 0
20 -383 407 0
20 383 -407 -384 0
20 -384 -405 0
20 -384 -406 0
20 384 406 405 0
20 385 442 0
20 385 -368 0
20 -385 368 -442 0
20 385 0
20 386 444 0
20 386 -368 0
20 -386 368 -444 0
20 386 0
20 387 445 0
20 387 -388 0
20 -387 388 -445 0
20 387 0
20 -388 360 0
20 -388 389 0
20 388 -389 -360 0
20 389 -390 0
20 389 -394 0
20 -389 394 390 0
20 390 -391 0
20 390 -392 0
20 -390 392 391 0
20 -391 324 0
20 -391 396 0
20 391 -396 -324 0
20 -392 393 0
20 -392 397 0
20 392 -397 -393 0
20 -393 -396 0
20 -393 -398 0
20 393 398 396 0
20 -394 395 0
20 -394 398 0
20 394 -398 -395 0
20 -395 -396 0
20 -395 -397 0
20 395 397 396 0
20 408 -409 0
20 408 -412 0
20 -408 412 409 0
20 408 0
20 -409 -423 0
20 -409 410 0
20 409 -410 423 0
20 -410 -425 0
20 -410 411 0
20 410 -411 425 0
20 -411 -426 0
20 -411 421 0
20 411 -421 426 0
20 412 -413 0
20 412 -416 0
20 -412 416 413 0
20 -413 -421 0
20 -413 414 0
20 413 -414 421 0
20 -414 -425 0
20 -414 415 0
20 414 -415 425 0
20 -415 -426 0
20 -415 423 0
20 415 -423 426 0
20 416 -417 0
20 416 -420 0
20 -416 420 417 0
20 -417 -421 0
20 -417 418 0
20 417 -418 421 0
20 -418 -423 0
20 -418 419 0
20 418 -419 423 0
20 -419 -426 0
20 -419 425 0
20 419 -425 426 0
20 -420 -421 0
20 -420 422 0
20 420 -422 421 0
20 -422 -423 0
20 -422 424 0
20 422 -424 423 0
20 -424 -425 0
20 -424 426 0
20 424 -426 425 0
20 427 -428 0
20 427 -431 0
20 -427 431 428 0
20 427 0
20 -428 -442 0
20 -428 429 0
20 428 -429 442 0
20 -429 -444 0
20 -429 430 0
20 429 -430 444 0
20 -430 -445 0
20 -430 440 0
20 430 -440 445 0
20 431 -432 0
20 431 -435 0
20 -431 435 432 0
20 -432 -440 0
20 -432 433 0
20 432 -433 440 0
20 -433 -444 0
20 -433 434 0
20 433 -434 444 0
20 -434 -445 0
20 -434 442 0
20 434 -442 445 0
20 435 -436 0
20 435 -439 0
20 -435 439 436 0
20 -436 -440 0
20 -436 437 0
20 436 -437 440 0
20 -437 -442 0
20 -437 438 0
20 437 -438 442 0
20 -438 -445 0
20 -438 444 0
20 438 -444 445 0
20 -439 -440 0
20 -439 441 0
20 439 -441 440 0
20 -441 -442 0
20 -441 443 0
20 441 -443 442 0
20 -443 -444 0
20 -443 445 0
20 443 -445 444 0
